c ind 1 2 3 4 5 6 7 8 9 10 11 12 13 14 15 16 17 18 19 20 21 22 23 24 25 26 27 28 29 30 31 32 33 34 35 36 37 38 39 40 41 42 43 44 45 46 47 48 49 50 51 52 53 54 55 56 57 58 59 60 61 62 63 64 65 66 67 68 69 70 71 72 73 74 75 76 0
p cnf 910 2354              
-74 -73 -818 0
818 -824 0
-73 819 0
-74 819 0
73 74 -819 0
-819 -75 -820 0
820 -824 0
-75 821 0
-819 821 0
75 819 -821 0
-821 -76 -822 0
822 -824 0
76 821 -823 0
823 -824 0
824 -908 0
1 -825 0
65 -825 0
5 -829 0
66 -829 0
9 -833 0
67 -833 0
13 -837 0
68 -837 0
17 -841 0
69 -841 0
21 -845 0
70 -845 0
25 -849 0
71 -849 0
29 -853 0
72 -853 0
825 829 833 837 841 845 849 853 -857 0
-73 857 -861 0
861 -865 0
2 -826 0
65 -826 0
6 -830 0
66 -830 0
10 -834 0
67 -834 0
14 -838 0
68 -838 0
18 -842 0
69 -842 0
22 -846 0
70 -846 0
26 -850 0
71 -850 0
30 -854 0
72 -854 0
826 830 834 838 842 846 850 854 -858 0
-74 858 -862 0
862 -865 0
3 -827 0
65 -827 0
7 -831 0
66 -831 0
11 -835 0
67 -835 0
15 -839 0
68 -839 0
19 -843 0
69 -843 0
23 -847 0
70 -847 0
27 -851 0
71 -851 0
31 -855 0
72 -855 0
827 831 835 839 843 847 851 855 -859 0
-75 859 -863 0
863 -865 0
4 -828 0
65 -828 0
8 -832 0
66 -832 0
12 -836 0
67 -836 0
16 -840 0
68 -840 0
20 -844 0
69 -844 0
24 -848 0
70 -848 0
28 -852 0
71 -852 0
32 -856 0
72 -856 0
828 832 836 840 844 848 852 856 -860 0
-76 860 -864 0
864 -865 0
865 -907 0
33 -866 0
65 -866 0
37 -870 0
66 -870 0
41 -874 0
67 -874 0
45 -878 0
68 -878 0
49 -882 0
69 -882 0
53 -886 0
70 -886 0
57 -890 0
71 -890 0
61 -894 0
72 -894 0
866 870 874 878 882 886 890 894 -898 0
-73 898 -902 0
902 -906 0
34 -867 0
65 -867 0
38 -871 0
66 -871 0
42 -875 0
67 -875 0
46 -879 0
68 -879 0
50 -883 0
69 -883 0
54 -887 0
70 -887 0
58 -891 0
71 -891 0
62 -895 0
72 -895 0
867 871 875 879 883 887 891 895 -899 0
-74 899 -903 0
903 -906 0
35 -868 0
65 -868 0
39 -872 0
66 -872 0
43 -876 0
67 -876 0
47 -880 0
68 -880 0
51 -884 0
69 -884 0
55 -888 0
70 -888 0
59 -892 0
71 -892 0
63 -896 0
72 -896 0
868 872 876 880 884 888 892 896 -900 0
-75 900 -904 0
904 -906 0
36 -869 0
65 -869 0
40 -873 0
66 -873 0
44 -877 0
67 -877 0
48 -881 0
68 -881 0
52 -885 0
69 -885 0
56 -889 0
70 -889 0
60 -893 0
71 -893 0
64 -897 0
72 -897 0
869 873 877 881 885 889 893 897 -901 0
-76 901 -905 0
905 -906 0
906 -907 0
907 -908 0
908 909 0
-66 -65 -803 0
803 -817 0
-65 804 0
-66 804 0
65 66 -804 0
-804 -67 -805 0
805 -817 0
-67 806 0
-804 806 0
67 804 -806 0
-806 -68 -807 0
807 -817 0
-68 808 0
-806 808 0
68 806 -808 0
-808 -69 -809 0
809 -817 0
-69 810 0
-808 810 0
69 808 -810 0
-810 -70 -811 0
811 -817 0
-70 812 0
-810 812 0
70 810 -812 0
-812 -71 -813 0
813 -817 0
-71 814 0
-812 814 0
71 812 -814 0
-814 -72 -815 0
815 -817 0
72 814 -816 0
816 -817 0
817 909 0
-33 85 0
-34 85 0
-35 85 0
-36 85 0
-85 -94 0
1 -93 0
2 -93 0
3 -93 0
4 -93 0
93 -94 0
-5 -100 0
6 97 0
-2 97 0
-6 2 -97 0
97 -100 0
7 98 0
-6 -95 0
3 -95 0
6 -3 95 0
-95 98 0
-7 95 -98 0
98 -100 0
8 99 0
-7 -96 0
4 -96 0
7 -4 96 0
-96 99 0
-8 96 -99 0
99 -100 0
100 -105 0
2 101 0
-6 101 0
-2 6 -101 0
101 -104 0
95 102 0
-7 102 0
-95 7 -102 0
102 -104 0
96 103 0
-8 103 0
-96 8 -103 0
103 -104 0
104 -105 0
105 -115 0
38 106 0
-34 106 0
-38 34 -106 0
106 -109 0
39 107 0
-35 107 0
-39 35 -107 0
107 -109 0
40 108 0
-36 108 0
-40 36 -108 0
108 -109 0
109 -114 0
37 -113 0
34 110 0
-38 110 0
-34 38 -110 0
110 -113 0
35 111 0
-39 111 0
-35 39 -111 0
111 -113 0
36 112 0
-40 112 0
-36 40 -112 0
112 -113 0
113 -114 0
114 -115 0
3 -131 0
-7 -124 0
-5 -124 0
97 -124 0
99 -124 0
7 5 -97 -99 124 0
124 -126 0
101 -125 0
103 -125 0
-101 -103 125 0
125 -126 0
-124 -125 126 0
126 -130 0
106 -127 0
108 -127 0
-106 -108 127 0
127 -129 0
37 -128 0
39 -128 0
110 -128 0
112 -128 0
-37 -39 -110 -112 128 0
128 -129 0
-127 -128 129 0
129 -130 0
-126 -129 130 0
130 -131 0
-3 -130 131 0
2 -123 0
-6 -116 0
-5 -116 0
98 -116 0
99 -116 0
6 5 -98 -99 116 0
116 -118 0
102 -117 0
103 -117 0
-102 -103 117 0
117 -118 0
-116 -117 118 0
118 -122 0
107 -119 0
108 -119 0
-107 -108 119 0
119 -121 0
37 -120 0
38 -120 0
111 -120 0
112 -120 0
-37 -38 -111 -112 120 0
120 -121 0
-119 -120 121 0
121 -122 0
-118 -121 122 0
122 -123 0
-2 -122 123 0
-131 -123 -140 0
140 -144 0
-123 141 0
-131 141 0
123 131 -141 0
4 -139 0
-8 -132 0
-5 -132 0
97 -132 0
98 -132 0
8 5 -97 -98 132 0
132 -134 0
101 -133 0
102 -133 0
-101 -102 133 0
133 -134 0
-132 -133 134 0
134 -138 0
106 -135 0
107 -135 0
-106 -107 135 0
135 -137 0
37 -136 0
40 -136 0
110 -136 0
111 -136 0
-37 -40 -110 -111 136 0
136 -137 0
-135 -136 137 0
137 -138 0
-134 -137 138 0
138 -139 0
-4 -138 139 0
-141 -139 -142 0
142 -144 0
139 141 -143 0
143 -144 0
115 144 -145 0
-1 145 -146 0
146 -195 0
-37 -151 0
106 -151 0
39 149 0
-38 -147 0
35 -147 0
38 -35 147 0
-147 149 0
-39 147 -149 0
149 -151 0
40 150 0
-39 -148 0
36 -148 0
39 -36 148 0
-148 150 0
-40 148 -150 0
150 -151 0
151 -155 0
110 -154 0
147 152 0
-39 152 0
-147 39 -152 0
152 -154 0
148 153 0
-40 153 0
-148 40 -153 0
153 -154 0
154 -155 0
155 -163 0
97 -158 0
7 156 0
-3 156 0
-7 3 -156 0
156 -158 0
8 157 0
-4 157 0
-8 4 -157 0
157 -158 0
158 -162 0
5 -161 0
101 -161 0
3 159 0
-7 159 0
-3 7 -159 0
159 -161 0
4 160 0
-8 160 0
-4 8 -160 0
160 -161 0
161 -162 0
162 -163 0
35 -179 0
-39 -172 0
-37 -172 0
106 -172 0
150 -172 0
39 37 -106 -150 172 0
172 -174 0
110 -173 0
153 -173 0
-110 -153 173 0
173 -174 0
-172 -173 174 0
174 -178 0
97 -175 0
157 -175 0
-97 -157 175 0
175 -177 0
5 -176 0
7 -176 0
101 -176 0
160 -176 0
-5 -7 -101 -160 176 0
176 -177 0
-175 -176 177 0
177 -178 0
-174 -177 178 0
178 -179 0
-35 -178 179 0
34 -171 0
-38 -164 0
-37 -164 0
149 -164 0
150 -164 0
38 37 -149 -150 164 0
164 -166 0
152 -165 0
153 -165 0
-152 -153 165 0
165 -166 0
-164 -165 166 0
166 -170 0
156 -167 0
157 -167 0
-156 -157 167 0
167 -169 0
5 -168 0
6 -168 0
159 -168 0
160 -168 0
-5 -6 -159 -160 168 0
168 -169 0
-167 -168 169 0
169 -170 0
-166 -169 170 0
170 -171 0
-34 -170 171 0
-179 -171 -188 0
188 -192 0
-171 189 0
-179 189 0
171 179 -189 0
36 -187 0
-40 -180 0
-37 -180 0
106 -180 0
149 -180 0
40 37 -106 -149 180 0
180 -182 0
110 -181 0
152 -181 0
-110 -152 181 0
181 -182 0
-180 -181 182 0
182 -186 0
97 -183 0
156 -183 0
-97 -156 183 0
183 -185 0
5 -184 0
8 -184 0
101 -184 0
159 -184 0
-5 -8 -101 -159 184 0
184 -185 0
-183 -184 185 0
185 -186 0
-182 -185 186 0
186 -187 0
-36 -186 187 0
-189 -187 -190 0
190 -192 0
187 189 -191 0
191 -192 0
163 192 -193 0
1 193 -194 0
194 -195 0
195 -802 0
-9 -201 0
10 198 0
-6 198 0
-10 6 -198 0
198 -201 0
11 199 0
-10 -196 0
7 -196 0
10 -7 196 0
-196 199 0
-11 196 -199 0
199 -201 0
12 200 0
-11 -197 0
8 -197 0
11 -8 197 0
-197 200 0
-12 197 -200 0
200 -201 0
201 -206 0
6 202 0
-10 202 0
-6 10 -202 0
202 -205 0
196 203 0
-11 203 0
-196 11 -203 0
203 -205 0
197 204 0
-12 204 0
-197 12 -204 0
204 -205 0
205 -206 0
206 -216 0
42 207 0
-38 207 0
-42 38 -207 0
207 -210 0
43 208 0
-39 208 0
-43 39 -208 0
208 -210 0
44 209 0
-40 209 0
-44 40 -209 0
209 -210 0
210 -215 0
41 -214 0
38 211 0
-42 211 0
-38 42 -211 0
211 -214 0
39 212 0
-43 212 0
-39 43 -212 0
212 -214 0
40 213 0
-44 213 0
-40 44 -213 0
213 -214 0
214 -215 0
215 -216 0
7 -232 0
-11 -225 0
-9 -225 0
198 -225 0
200 -225 0
11 9 -198 -200 225 0
225 -227 0
202 -226 0
204 -226 0
-202 -204 226 0
226 -227 0
-225 -226 227 0
227 -231 0
207 -228 0
209 -228 0
-207 -209 228 0
228 -230 0
41 -229 0
43 -229 0
211 -229 0
213 -229 0
-41 -43 -211 -213 229 0
229 -230 0
-228 -229 230 0
230 -231 0
-227 -230 231 0
231 -232 0
-7 -231 232 0
6 -224 0
-10 -217 0
-9 -217 0
199 -217 0
200 -217 0
10 9 -199 -200 217 0
217 -219 0
203 -218 0
204 -218 0
-203 -204 218 0
218 -219 0
-217 -218 219 0
219 -223 0
208 -220 0
209 -220 0
-208 -209 220 0
220 -222 0
41 -221 0
42 -221 0
212 -221 0
213 -221 0
-41 -42 -212 -213 221 0
221 -222 0
-220 -221 222 0
222 -223 0
-219 -222 223 0
223 -224 0
-6 -223 224 0
-232 -224 -241 0
241 -245 0
-224 242 0
-232 242 0
224 232 -242 0
8 -240 0
-12 -233 0
-9 -233 0
198 -233 0
199 -233 0
12 9 -198 -199 233 0
233 -235 0
202 -234 0
203 -234 0
-202 -203 234 0
234 -235 0
-233 -234 235 0
235 -239 0
207 -236 0
208 -236 0
-207 -208 236 0
236 -238 0
41 -237 0
44 -237 0
211 -237 0
212 -237 0
-41 -44 -211 -212 237 0
237 -238 0
-236 -237 238 0
238 -239 0
-235 -238 239 0
239 -240 0
-8 -239 240 0
-242 -240 -243 0
243 -245 0
240 242 -244 0
244 -245 0
216 245 -246 0
-5 246 -247 0
247 -296 0
-41 -252 0
207 -252 0
43 250 0
-42 -248 0
39 -248 0
42 -39 248 0
-248 250 0
-43 248 -250 0
250 -252 0
44 251 0
-43 -249 0
40 -249 0
43 -40 249 0
-249 251 0
-44 249 -251 0
251 -252 0
252 -256 0
211 -255 0
248 253 0
-43 253 0
-248 43 -253 0
253 -255 0
249 254 0
-44 254 0
-249 44 -254 0
254 -255 0
255 -256 0
256 -264 0
198 -259 0
11 257 0
-7 257 0
-11 7 -257 0
257 -259 0
12 258 0
-8 258 0
-12 8 -258 0
258 -259 0
259 -263 0
9 -262 0
202 -262 0
7 260 0
-11 260 0
-7 11 -260 0
260 -262 0
8 261 0
-12 261 0
-8 12 -261 0
261 -262 0
262 -263 0
263 -264 0
39 -280 0
-43 -273 0
-41 -273 0
207 -273 0
251 -273 0
43 41 -207 -251 273 0
273 -275 0
211 -274 0
254 -274 0
-211 -254 274 0
274 -275 0
-273 -274 275 0
275 -279 0
198 -276 0
258 -276 0
-198 -258 276 0
276 -278 0
9 -277 0
11 -277 0
202 -277 0
261 -277 0
-9 -11 -202 -261 277 0
277 -278 0
-276 -277 278 0
278 -279 0
-275 -278 279 0
279 -280 0
-39 -279 280 0
38 -272 0
-42 -265 0
-41 -265 0
250 -265 0
251 -265 0
42 41 -250 -251 265 0
265 -267 0
253 -266 0
254 -266 0
-253 -254 266 0
266 -267 0
-265 -266 267 0
267 -271 0
257 -268 0
258 -268 0
-257 -258 268 0
268 -270 0
9 -269 0
10 -269 0
260 -269 0
261 -269 0
-9 -10 -260 -261 269 0
269 -270 0
-268 -269 270 0
270 -271 0
-267 -270 271 0
271 -272 0
-38 -271 272 0
-280 -272 -289 0
289 -293 0
-272 290 0
-280 290 0
272 280 -290 0
40 -288 0
-44 -281 0
-41 -281 0
207 -281 0
250 -281 0
44 41 -207 -250 281 0
281 -283 0
211 -282 0
253 -282 0
-211 -253 282 0
282 -283 0
-281 -282 283 0
283 -287 0
198 -284 0
257 -284 0
-198 -257 284 0
284 -286 0
9 -285 0
12 -285 0
202 -285 0
260 -285 0
-9 -12 -202 -260 285 0
285 -286 0
-284 -285 286 0
286 -287 0
-283 -286 287 0
287 -288 0
-40 -287 288 0
-290 -288 -291 0
291 -293 0
288 290 -292 0
292 -293 0
264 293 -294 0
5 294 -295 0
295 -296 0
296 -802 0
-13 -302 0
14 299 0
-10 299 0
-14 10 -299 0
299 -302 0
15 300 0
-14 -297 0
11 -297 0
14 -11 297 0
-297 300 0
-15 297 -300 0
300 -302 0
16 301 0
-15 -298 0
12 -298 0
15 -12 298 0
-298 301 0
-16 298 -301 0
301 -302 0
302 -307 0
10 303 0
-14 303 0
-10 14 -303 0
303 -306 0
297 304 0
-15 304 0
-297 15 -304 0
304 -306 0
298 305 0
-16 305 0
-298 16 -305 0
305 -306 0
306 -307 0
307 -317 0
46 308 0
-42 308 0
-46 42 -308 0
308 -311 0
47 309 0
-43 309 0
-47 43 -309 0
309 -311 0
48 310 0
-44 310 0
-48 44 -310 0
310 -311 0
311 -316 0
45 -315 0
42 312 0
-46 312 0
-42 46 -312 0
312 -315 0
43 313 0
-47 313 0
-43 47 -313 0
313 -315 0
44 314 0
-48 314 0
-44 48 -314 0
314 -315 0
315 -316 0
316 -317 0
11 -333 0
-15 -326 0
-13 -326 0
299 -326 0
301 -326 0
15 13 -299 -301 326 0
326 -328 0
303 -327 0
305 -327 0
-303 -305 327 0
327 -328 0
-326 -327 328 0
328 -332 0
308 -329 0
310 -329 0
-308 -310 329 0
329 -331 0
45 -330 0
47 -330 0
312 -330 0
314 -330 0
-45 -47 -312 -314 330 0
330 -331 0
-329 -330 331 0
331 -332 0
-328 -331 332 0
332 -333 0
-11 -332 333 0
10 -325 0
-14 -318 0
-13 -318 0
300 -318 0
301 -318 0
14 13 -300 -301 318 0
318 -320 0
304 -319 0
305 -319 0
-304 -305 319 0
319 -320 0
-318 -319 320 0
320 -324 0
309 -321 0
310 -321 0
-309 -310 321 0
321 -323 0
45 -322 0
46 -322 0
313 -322 0
314 -322 0
-45 -46 -313 -314 322 0
322 -323 0
-321 -322 323 0
323 -324 0
-320 -323 324 0
324 -325 0
-10 -324 325 0
-333 -325 -342 0
342 -346 0
-325 343 0
-333 343 0
325 333 -343 0
12 -341 0
-16 -334 0
-13 -334 0
299 -334 0
300 -334 0
16 13 -299 -300 334 0
334 -336 0
303 -335 0
304 -335 0
-303 -304 335 0
335 -336 0
-334 -335 336 0
336 -340 0
308 -337 0
309 -337 0
-308 -309 337 0
337 -339 0
45 -338 0
48 -338 0
312 -338 0
313 -338 0
-45 -48 -312 -313 338 0
338 -339 0
-337 -338 339 0
339 -340 0
-336 -339 340 0
340 -341 0
-12 -340 341 0
-343 -341 -344 0
344 -346 0
341 343 -345 0
345 -346 0
317 346 -347 0
-9 347 -348 0
348 -397 0
-45 -353 0
308 -353 0
47 351 0
-46 -349 0
43 -349 0
46 -43 349 0
-349 351 0
-47 349 -351 0
351 -353 0
48 352 0
-47 -350 0
44 -350 0
47 -44 350 0
-350 352 0
-48 350 -352 0
352 -353 0
353 -357 0
312 -356 0
349 354 0
-47 354 0
-349 47 -354 0
354 -356 0
350 355 0
-48 355 0
-350 48 -355 0
355 -356 0
356 -357 0
357 -365 0
299 -360 0
15 358 0
-11 358 0
-15 11 -358 0
358 -360 0
16 359 0
-12 359 0
-16 12 -359 0
359 -360 0
360 -364 0
13 -363 0
303 -363 0
11 361 0
-15 361 0
-11 15 -361 0
361 -363 0
12 362 0
-16 362 0
-12 16 -362 0
362 -363 0
363 -364 0
364 -365 0
43 -381 0
-47 -374 0
-45 -374 0
308 -374 0
352 -374 0
47 45 -308 -352 374 0
374 -376 0
312 -375 0
355 -375 0
-312 -355 375 0
375 -376 0
-374 -375 376 0
376 -380 0
299 -377 0
359 -377 0
-299 -359 377 0
377 -379 0
13 -378 0
15 -378 0
303 -378 0
362 -378 0
-13 -15 -303 -362 378 0
378 -379 0
-377 -378 379 0
379 -380 0
-376 -379 380 0
380 -381 0
-43 -380 381 0
42 -373 0
-46 -366 0
-45 -366 0
351 -366 0
352 -366 0
46 45 -351 -352 366 0
366 -368 0
354 -367 0
355 -367 0
-354 -355 367 0
367 -368 0
-366 -367 368 0
368 -372 0
358 -369 0
359 -369 0
-358 -359 369 0
369 -371 0
13 -370 0
14 -370 0
361 -370 0
362 -370 0
-13 -14 -361 -362 370 0
370 -371 0
-369 -370 371 0
371 -372 0
-368 -371 372 0
372 -373 0
-42 -372 373 0
-381 -373 -390 0
390 -394 0
-373 391 0
-381 391 0
373 381 -391 0
44 -389 0
-48 -382 0
-45 -382 0
308 -382 0
351 -382 0
48 45 -308 -351 382 0
382 -384 0
312 -383 0
354 -383 0
-312 -354 383 0
383 -384 0
-382 -383 384 0
384 -388 0
299 -385 0
358 -385 0
-299 -358 385 0
385 -387 0
13 -386 0
16 -386 0
303 -386 0
361 -386 0
-13 -16 -303 -361 386 0
386 -387 0
-385 -386 387 0
387 -388 0
-384 -387 388 0
388 -389 0
-44 -388 389 0
-391 -389 -392 0
392 -394 0
389 391 -393 0
393 -394 0
365 394 -395 0
9 395 -396 0
396 -397 0
397 -802 0
-17 -403 0
18 400 0
-14 400 0
-18 14 -400 0
400 -403 0
19 401 0
-18 -398 0
15 -398 0
18 -15 398 0
-398 401 0
-19 398 -401 0
401 -403 0
20 402 0
-19 -399 0
16 -399 0
19 -16 399 0
-399 402 0
-20 399 -402 0
402 -403 0
403 -408 0
14 404 0
-18 404 0
-14 18 -404 0
404 -407 0
398 405 0
-19 405 0
-398 19 -405 0
405 -407 0
399 406 0
-20 406 0
-399 20 -406 0
406 -407 0
407 -408 0
408 -418 0
50 409 0
-46 409 0
-50 46 -409 0
409 -412 0
51 410 0
-47 410 0
-51 47 -410 0
410 -412 0
52 411 0
-48 411 0
-52 48 -411 0
411 -412 0
412 -417 0
49 -416 0
46 413 0
-50 413 0
-46 50 -413 0
413 -416 0
47 414 0
-51 414 0
-47 51 -414 0
414 -416 0
48 415 0
-52 415 0
-48 52 -415 0
415 -416 0
416 -417 0
417 -418 0
15 -434 0
-19 -427 0
-17 -427 0
400 -427 0
402 -427 0
19 17 -400 -402 427 0
427 -429 0
404 -428 0
406 -428 0
-404 -406 428 0
428 -429 0
-427 -428 429 0
429 -433 0
409 -430 0
411 -430 0
-409 -411 430 0
430 -432 0
49 -431 0
51 -431 0
413 -431 0
415 -431 0
-49 -51 -413 -415 431 0
431 -432 0
-430 -431 432 0
432 -433 0
-429 -432 433 0
433 -434 0
-15 -433 434 0
14 -426 0
-18 -419 0
-17 -419 0
401 -419 0
402 -419 0
18 17 -401 -402 419 0
419 -421 0
405 -420 0
406 -420 0
-405 -406 420 0
420 -421 0
-419 -420 421 0
421 -425 0
410 -422 0
411 -422 0
-410 -411 422 0
422 -424 0
49 -423 0
50 -423 0
414 -423 0
415 -423 0
-49 -50 -414 -415 423 0
423 -424 0
-422 -423 424 0
424 -425 0
-421 -424 425 0
425 -426 0
-14 -425 426 0
-434 -426 -443 0
443 -447 0
-426 444 0
-434 444 0
426 434 -444 0
16 -442 0
-20 -435 0
-17 -435 0
400 -435 0
401 -435 0
20 17 -400 -401 435 0
435 -437 0
404 -436 0
405 -436 0
-404 -405 436 0
436 -437 0
-435 -436 437 0
437 -441 0
409 -438 0
410 -438 0
-409 -410 438 0
438 -440 0
49 -439 0
52 -439 0
413 -439 0
414 -439 0
-49 -52 -413 -414 439 0
439 -440 0
-438 -439 440 0
440 -441 0
-437 -440 441 0
441 -442 0
-16 -441 442 0
-444 -442 -445 0
445 -447 0
442 444 -446 0
446 -447 0
418 447 -448 0
-13 448 -449 0
449 -498 0
-49 -454 0
409 -454 0
51 452 0
-50 -450 0
47 -450 0
50 -47 450 0
-450 452 0
-51 450 -452 0
452 -454 0
52 453 0
-51 -451 0
48 -451 0
51 -48 451 0
-451 453 0
-52 451 -453 0
453 -454 0
454 -458 0
413 -457 0
450 455 0
-51 455 0
-450 51 -455 0
455 -457 0
451 456 0
-52 456 0
-451 52 -456 0
456 -457 0
457 -458 0
458 -466 0
400 -461 0
19 459 0
-15 459 0
-19 15 -459 0
459 -461 0
20 460 0
-16 460 0
-20 16 -460 0
460 -461 0
461 -465 0
17 -464 0
404 -464 0
15 462 0
-19 462 0
-15 19 -462 0
462 -464 0
16 463 0
-20 463 0
-16 20 -463 0
463 -464 0
464 -465 0
465 -466 0
47 -482 0
-51 -475 0
-49 -475 0
409 -475 0
453 -475 0
51 49 -409 -453 475 0
475 -477 0
413 -476 0
456 -476 0
-413 -456 476 0
476 -477 0
-475 -476 477 0
477 -481 0
400 -478 0
460 -478 0
-400 -460 478 0
478 -480 0
17 -479 0
19 -479 0
404 -479 0
463 -479 0
-17 -19 -404 -463 479 0
479 -480 0
-478 -479 480 0
480 -481 0
-477 -480 481 0
481 -482 0
-47 -481 482 0
46 -474 0
-50 -467 0
-49 -467 0
452 -467 0
453 -467 0
50 49 -452 -453 467 0
467 -469 0
455 -468 0
456 -468 0
-455 -456 468 0
468 -469 0
-467 -468 469 0
469 -473 0
459 -470 0
460 -470 0
-459 -460 470 0
470 -472 0
17 -471 0
18 -471 0
462 -471 0
463 -471 0
-17 -18 -462 -463 471 0
471 -472 0
-470 -471 472 0
472 -473 0
-469 -472 473 0
473 -474 0
-46 -473 474 0
-482 -474 -491 0
491 -495 0
-474 492 0
-482 492 0
474 482 -492 0
48 -490 0
-52 -483 0
-49 -483 0
409 -483 0
452 -483 0
52 49 -409 -452 483 0
483 -485 0
413 -484 0
455 -484 0
-413 -455 484 0
484 -485 0
-483 -484 485 0
485 -489 0
400 -486 0
459 -486 0
-400 -459 486 0
486 -488 0
17 -487 0
20 -487 0
404 -487 0
462 -487 0
-17 -20 -404 -462 487 0
487 -488 0
-486 -487 488 0
488 -489 0
-485 -488 489 0
489 -490 0
-48 -489 490 0
-492 -490 -493 0
493 -495 0
490 492 -494 0
494 -495 0
466 495 -496 0
13 496 -497 0
497 -498 0
498 -802 0
-21 -504 0
22 501 0
-18 501 0
-22 18 -501 0
501 -504 0
23 502 0
-22 -499 0
19 -499 0
22 -19 499 0
-499 502 0
-23 499 -502 0
502 -504 0
24 503 0
-23 -500 0
20 -500 0
23 -20 500 0
-500 503 0
-24 500 -503 0
503 -504 0
504 -509 0
18 505 0
-22 505 0
-18 22 -505 0
505 -508 0
499 506 0
-23 506 0
-499 23 -506 0
506 -508 0
500 507 0
-24 507 0
-500 24 -507 0
507 -508 0
508 -509 0
509 -519 0
54 510 0
-50 510 0
-54 50 -510 0
510 -513 0
55 511 0
-51 511 0
-55 51 -511 0
511 -513 0
56 512 0
-52 512 0
-56 52 -512 0
512 -513 0
513 -518 0
53 -517 0
50 514 0
-54 514 0
-50 54 -514 0
514 -517 0
51 515 0
-55 515 0
-51 55 -515 0
515 -517 0
52 516 0
-56 516 0
-52 56 -516 0
516 -517 0
517 -518 0
518 -519 0
19 -535 0
-23 -528 0
-21 -528 0
501 -528 0
503 -528 0
23 21 -501 -503 528 0
528 -530 0
505 -529 0
507 -529 0
-505 -507 529 0
529 -530 0
-528 -529 530 0
530 -534 0
510 -531 0
512 -531 0
-510 -512 531 0
531 -533 0
53 -532 0
55 -532 0
514 -532 0
516 -532 0
-53 -55 -514 -516 532 0
532 -533 0
-531 -532 533 0
533 -534 0
-530 -533 534 0
534 -535 0
-19 -534 535 0
18 -527 0
-22 -520 0
-21 -520 0
502 -520 0
503 -520 0
22 21 -502 -503 520 0
520 -522 0
506 -521 0
507 -521 0
-506 -507 521 0
521 -522 0
-520 -521 522 0
522 -526 0
511 -523 0
512 -523 0
-511 -512 523 0
523 -525 0
53 -524 0
54 -524 0
515 -524 0
516 -524 0
-53 -54 -515 -516 524 0
524 -525 0
-523 -524 525 0
525 -526 0
-522 -525 526 0
526 -527 0
-18 -526 527 0
-535 -527 -544 0
544 -548 0
-527 545 0
-535 545 0
527 535 -545 0
20 -543 0
-24 -536 0
-21 -536 0
501 -536 0
502 -536 0
24 21 -501 -502 536 0
536 -538 0
505 -537 0
506 -537 0
-505 -506 537 0
537 -538 0
-536 -537 538 0
538 -542 0
510 -539 0
511 -539 0
-510 -511 539 0
539 -541 0
53 -540 0
56 -540 0
514 -540 0
515 -540 0
-53 -56 -514 -515 540 0
540 -541 0
-539 -540 541 0
541 -542 0
-538 -541 542 0
542 -543 0
-20 -542 543 0
-545 -543 -546 0
546 -548 0
543 545 -547 0
547 -548 0
519 548 -549 0
-17 549 -550 0
550 -599 0
-53 -555 0
510 -555 0
55 553 0
-54 -551 0
51 -551 0
54 -51 551 0
-551 553 0
-55 551 -553 0
553 -555 0
56 554 0
-55 -552 0
52 -552 0
55 -52 552 0
-552 554 0
-56 552 -554 0
554 -555 0
555 -559 0
514 -558 0
551 556 0
-55 556 0
-551 55 -556 0
556 -558 0
552 557 0
-56 557 0
-552 56 -557 0
557 -558 0
558 -559 0
559 -567 0
501 -562 0
23 560 0
-19 560 0
-23 19 -560 0
560 -562 0
24 561 0
-20 561 0
-24 20 -561 0
561 -562 0
562 -566 0
21 -565 0
505 -565 0
19 563 0
-23 563 0
-19 23 -563 0
563 -565 0
20 564 0
-24 564 0
-20 24 -564 0
564 -565 0
565 -566 0
566 -567 0
51 -583 0
-55 -576 0
-53 -576 0
510 -576 0
554 -576 0
55 53 -510 -554 576 0
576 -578 0
514 -577 0
557 -577 0
-514 -557 577 0
577 -578 0
-576 -577 578 0
578 -582 0
501 -579 0
561 -579 0
-501 -561 579 0
579 -581 0
21 -580 0
23 -580 0
505 -580 0
564 -580 0
-21 -23 -505 -564 580 0
580 -581 0
-579 -580 581 0
581 -582 0
-578 -581 582 0
582 -583 0
-51 -582 583 0
50 -575 0
-54 -568 0
-53 -568 0
553 -568 0
554 -568 0
54 53 -553 -554 568 0
568 -570 0
556 -569 0
557 -569 0
-556 -557 569 0
569 -570 0
-568 -569 570 0
570 -574 0
560 -571 0
561 -571 0
-560 -561 571 0
571 -573 0
21 -572 0
22 -572 0
563 -572 0
564 -572 0
-21 -22 -563 -564 572 0
572 -573 0
-571 -572 573 0
573 -574 0
-570 -573 574 0
574 -575 0
-50 -574 575 0
-583 -575 -592 0
592 -596 0
-575 593 0
-583 593 0
575 583 -593 0
52 -591 0
-56 -584 0
-53 -584 0
510 -584 0
553 -584 0
56 53 -510 -553 584 0
584 -586 0
514 -585 0
556 -585 0
-514 -556 585 0
585 -586 0
-584 -585 586 0
586 -590 0
501 -587 0
560 -587 0
-501 -560 587 0
587 -589 0
21 -588 0
24 -588 0
505 -588 0
563 -588 0
-21 -24 -505 -563 588 0
588 -589 0
-587 -588 589 0
589 -590 0
-586 -589 590 0
590 -591 0
-52 -590 591 0
-593 -591 -594 0
594 -596 0
591 593 -595 0
595 -596 0
567 596 -597 0
17 597 -598 0
598 -599 0
599 -802 0
-25 -605 0
26 602 0
-22 602 0
-26 22 -602 0
602 -605 0
27 603 0
-26 -600 0
23 -600 0
26 -23 600 0
-600 603 0
-27 600 -603 0
603 -605 0
28 604 0
-27 -601 0
24 -601 0
27 -24 601 0
-601 604 0
-28 601 -604 0
604 -605 0
605 -610 0
22 606 0
-26 606 0
-22 26 -606 0
606 -609 0
600 607 0
-27 607 0
-600 27 -607 0
607 -609 0
601 608 0
-28 608 0
-601 28 -608 0
608 -609 0
609 -610 0
610 -620 0
58 611 0
-54 611 0
-58 54 -611 0
611 -614 0
59 612 0
-55 612 0
-59 55 -612 0
612 -614 0
60 613 0
-56 613 0
-60 56 -613 0
613 -614 0
614 -619 0
57 -618 0
54 615 0
-58 615 0
-54 58 -615 0
615 -618 0
55 616 0
-59 616 0
-55 59 -616 0
616 -618 0
56 617 0
-60 617 0
-56 60 -617 0
617 -618 0
618 -619 0
619 -620 0
23 -636 0
-27 -629 0
-25 -629 0
602 -629 0
604 -629 0
27 25 -602 -604 629 0
629 -631 0
606 -630 0
608 -630 0
-606 -608 630 0
630 -631 0
-629 -630 631 0
631 -635 0
611 -632 0
613 -632 0
-611 -613 632 0
632 -634 0
57 -633 0
59 -633 0
615 -633 0
617 -633 0
-57 -59 -615 -617 633 0
633 -634 0
-632 -633 634 0
634 -635 0
-631 -634 635 0
635 -636 0
-23 -635 636 0
22 -628 0
-26 -621 0
-25 -621 0
603 -621 0
604 -621 0
26 25 -603 -604 621 0
621 -623 0
607 -622 0
608 -622 0
-607 -608 622 0
622 -623 0
-621 -622 623 0
623 -627 0
612 -624 0
613 -624 0
-612 -613 624 0
624 -626 0
57 -625 0
58 -625 0
616 -625 0
617 -625 0
-57 -58 -616 -617 625 0
625 -626 0
-624 -625 626 0
626 -627 0
-623 -626 627 0
627 -628 0
-22 -627 628 0
-636 -628 -645 0
645 -649 0
-628 646 0
-636 646 0
628 636 -646 0
24 -644 0
-28 -637 0
-25 -637 0
602 -637 0
603 -637 0
28 25 -602 -603 637 0
637 -639 0
606 -638 0
607 -638 0
-606 -607 638 0
638 -639 0
-637 -638 639 0
639 -643 0
611 -640 0
612 -640 0
-611 -612 640 0
640 -642 0
57 -641 0
60 -641 0
615 -641 0
616 -641 0
-57 -60 -615 -616 641 0
641 -642 0
-640 -641 642 0
642 -643 0
-639 -642 643 0
643 -644 0
-24 -643 644 0
-646 -644 -647 0
647 -649 0
644 646 -648 0
648 -649 0
620 649 -650 0
-21 650 -651 0
651 -700 0
-57 -656 0
611 -656 0
59 654 0
-58 -652 0
55 -652 0
58 -55 652 0
-652 654 0
-59 652 -654 0
654 -656 0
60 655 0
-59 -653 0
56 -653 0
59 -56 653 0
-653 655 0
-60 653 -655 0
655 -656 0
656 -660 0
615 -659 0
652 657 0
-59 657 0
-652 59 -657 0
657 -659 0
653 658 0
-60 658 0
-653 60 -658 0
658 -659 0
659 -660 0
660 -668 0
602 -663 0
27 661 0
-23 661 0
-27 23 -661 0
661 -663 0
28 662 0
-24 662 0
-28 24 -662 0
662 -663 0
663 -667 0
25 -666 0
606 -666 0
23 664 0
-27 664 0
-23 27 -664 0
664 -666 0
24 665 0
-28 665 0
-24 28 -665 0
665 -666 0
666 -667 0
667 -668 0
55 -684 0
-59 -677 0
-57 -677 0
611 -677 0
655 -677 0
59 57 -611 -655 677 0
677 -679 0
615 -678 0
658 -678 0
-615 -658 678 0
678 -679 0
-677 -678 679 0
679 -683 0
602 -680 0
662 -680 0
-602 -662 680 0
680 -682 0
25 -681 0
27 -681 0
606 -681 0
665 -681 0
-25 -27 -606 -665 681 0
681 -682 0
-680 -681 682 0
682 -683 0
-679 -682 683 0
683 -684 0
-55 -683 684 0
54 -676 0
-58 -669 0
-57 -669 0
654 -669 0
655 -669 0
58 57 -654 -655 669 0
669 -671 0
657 -670 0
658 -670 0
-657 -658 670 0
670 -671 0
-669 -670 671 0
671 -675 0
661 -672 0
662 -672 0
-661 -662 672 0
672 -674 0
25 -673 0
26 -673 0
664 -673 0
665 -673 0
-25 -26 -664 -665 673 0
673 -674 0
-672 -673 674 0
674 -675 0
-671 -674 675 0
675 -676 0
-54 -675 676 0
-684 -676 -693 0
693 -697 0
-676 694 0
-684 694 0
676 684 -694 0
56 -692 0
-60 -685 0
-57 -685 0
611 -685 0
654 -685 0
60 57 -611 -654 685 0
685 -687 0
615 -686 0
657 -686 0
-615 -657 686 0
686 -687 0
-685 -686 687 0
687 -691 0
602 -688 0
661 -688 0
-602 -661 688 0
688 -690 0
25 -689 0
28 -689 0
606 -689 0
664 -689 0
-25 -28 -606 -664 689 0
689 -690 0
-688 -689 690 0
690 -691 0
-687 -690 691 0
691 -692 0
-56 -691 692 0
-694 -692 -695 0
695 -697 0
692 694 -696 0
696 -697 0
668 697 -698 0
21 698 -699 0
699 -700 0
700 -802 0
-29 -706 0
30 703 0
-26 703 0
-30 26 -703 0
703 -706 0
31 704 0
-30 -701 0
27 -701 0
30 -27 701 0
-701 704 0
-31 701 -704 0
704 -706 0
32 705 0
-31 -702 0
28 -702 0
31 -28 702 0
-702 705 0
-32 702 -705 0
705 -706 0
706 -711 0
26 707 0
-30 707 0
-26 30 -707 0
707 -710 0
701 708 0
-31 708 0
-701 31 -708 0
708 -710 0
702 709 0
-32 709 0
-702 32 -709 0
709 -710 0
710 -711 0
711 -721 0
62 712 0
-58 712 0
-62 58 -712 0
712 -715 0
63 713 0
-59 713 0
-63 59 -713 0
713 -715 0
64 714 0
-60 714 0
-64 60 -714 0
714 -715 0
715 -720 0
61 -719 0
58 716 0
-62 716 0
-58 62 -716 0
716 -719 0
59 717 0
-63 717 0
-59 63 -717 0
717 -719 0
60 718 0
-64 718 0
-60 64 -718 0
718 -719 0
719 -720 0
720 -721 0
27 -737 0
-31 -730 0
-29 -730 0
703 -730 0
705 -730 0
31 29 -703 -705 730 0
730 -732 0
707 -731 0
709 -731 0
-707 -709 731 0
731 -732 0
-730 -731 732 0
732 -736 0
712 -733 0
714 -733 0
-712 -714 733 0
733 -735 0
61 -734 0
63 -734 0
716 -734 0
718 -734 0
-61 -63 -716 -718 734 0
734 -735 0
-733 -734 735 0
735 -736 0
-732 -735 736 0
736 -737 0
-27 -736 737 0
26 -729 0
-30 -722 0
-29 -722 0
704 -722 0
705 -722 0
30 29 -704 -705 722 0
722 -724 0
708 -723 0
709 -723 0
-708 -709 723 0
723 -724 0
-722 -723 724 0
724 -728 0
713 -725 0
714 -725 0
-713 -714 725 0
725 -727 0
61 -726 0
62 -726 0
717 -726 0
718 -726 0
-61 -62 -717 -718 726 0
726 -727 0
-725 -726 727 0
727 -728 0
-724 -727 728 0
728 -729 0
-26 -728 729 0
-737 -729 -746 0
746 -750 0
-729 747 0
-737 747 0
729 737 -747 0
28 -745 0
-32 -738 0
-29 -738 0
703 -738 0
704 -738 0
32 29 -703 -704 738 0
738 -740 0
707 -739 0
708 -739 0
-707 -708 739 0
739 -740 0
-738 -739 740 0
740 -744 0
712 -741 0
713 -741 0
-712 -713 741 0
741 -743 0
61 -742 0
64 -742 0
716 -742 0
717 -742 0
-61 -64 -716 -717 742 0
742 -743 0
-741 -742 743 0
743 -744 0
-740 -743 744 0
744 -745 0
-28 -744 745 0
-747 -745 -748 0
748 -750 0
745 747 -749 0
749 -750 0
721 750 -751 0
-25 751 -752 0
752 -801 0
-61 -757 0
712 -757 0
63 755 0
-62 -753 0
59 -753 0
62 -59 753 0
-753 755 0
-63 753 -755 0
755 -757 0
64 756 0
-63 -754 0
60 -754 0
63 -60 754 0
-754 756 0
-64 754 -756 0
756 -757 0
757 -761 0
716 -760 0
753 758 0
-63 758 0
-753 63 -758 0
758 -760 0
754 759 0
-64 759 0
-754 64 -759 0
759 -760 0
760 -761 0
761 -769 0
703 -764 0
31 762 0
-27 762 0
-31 27 -762 0
762 -764 0
32 763 0
-28 763 0
-32 28 -763 0
763 -764 0
764 -768 0
29 -767 0
707 -767 0
27 765 0
-31 765 0
-27 31 -765 0
765 -767 0
28 766 0
-32 766 0
-28 32 -766 0
766 -767 0
767 -768 0
768 -769 0
59 -785 0
-63 -778 0
-61 -778 0
712 -778 0
756 -778 0
63 61 -712 -756 778 0
778 -780 0
716 -779 0
759 -779 0
-716 -759 779 0
779 -780 0
-778 -779 780 0
780 -784 0
703 -781 0
763 -781 0
-703 -763 781 0
781 -783 0
29 -782 0
31 -782 0
707 -782 0
766 -782 0
-29 -31 -707 -766 782 0
782 -783 0
-781 -782 783 0
783 -784 0
-780 -783 784 0
784 -785 0
-59 -784 785 0
58 -777 0
-62 -770 0
-61 -770 0
755 -770 0
756 -770 0
62 61 -755 -756 770 0
770 -772 0
758 -771 0
759 -771 0
-758 -759 771 0
771 -772 0
-770 -771 772 0
772 -776 0
762 -773 0
763 -773 0
-762 -763 773 0
773 -775 0
29 -774 0
30 -774 0
765 -774 0
766 -774 0
-29 -30 -765 -766 774 0
774 -775 0
-773 -774 775 0
775 -776 0
-772 -775 776 0
776 -777 0
-58 -776 777 0
-785 -777 -794 0
794 -798 0
-777 795 0
-785 795 0
777 785 -795 0
60 -793 0
-64 -786 0
-61 -786 0
712 -786 0
755 -786 0
64 61 -712 -755 786 0
786 -788 0
716 -787 0
758 -787 0
-716 -758 787 0
787 -788 0
-786 -787 788 0
788 -792 0
703 -789 0
762 -789 0
-703 -762 789 0
789 -791 0
29 -790 0
32 -790 0
707 -790 0
765 -790 0
-29 -32 -707 -765 790 0
790 -791 0
-789 -790 791 0
791 -792 0
-788 -791 792 0
792 -793 0
-60 -792 793 0
-795 -793 -796 0
796 -798 0
793 795 -797 0
797 -798 0
769 798 -799 0
25 799 -800 0
800 -801 0
801 -802 0
-909 0
94 0
802 0
